25 2
25 200
20
30
10
40
20
20
20
10
20
30
40
20
10
10
20
20
20
20
40
10
10
40
30
10
20
40 50 0 240 0 0
25 85 130 190 10 2
22 75 35 95 10 1
22 85 94 154 10 3
20 80 126 186 10 3
20 85 40 100 10 2
18 75 80 140 10 2
15 75 64 124 10 3
15 80 76 136 10 1
10 35 76 136 10 3
10 40 104 164 10 2
8 40 44 104 10 1
8 45 49 109 10 2
5 35 127 187 10 1
5 45 35 95 10 3
2 40 43 103 10 2
0 40 57 117 10 2
0 45 129 189 10 1
44 5 72 132 10 3
42 10 57 117 10 1
42 15 107 167 10 1
40 5 52 112 10 3
40 15 77 137 10 1
38 5 50 110 10 3
38 15 133 193 10 1
35 5 124 184 10 2
44 57 0 240 5 4
38 7 0 240 5 4
1 0
0 0
1 0
1 0
1 0
1 0
1 0
0 0
0 1
1 0
0 0
1 0
0 0
1 0
1 0
1 0
0 0
0 1
0 0
0 0
0 1
0 0
0 1
0 0
0 1
